(declare-fun _substvar_94_ () Bool)
(declare-fun v2 () Bool)
(declare-fun v10 () Bool)
(declare-fun v18 () Bool)
(declare-fun i10 () Int)
(declare-fun i18 () Int)
(push)
(check-sat)
(pop)
(assert _substvar_94_)
(assert v18)
(check-sat)
(assert (= v2 v10))
(assert (> i10 (- i18)))
(check-sat)
(assert false)
(push)
(push)
(check-sat)
(pop)
(pop)
(assert true)
(push)
(push)
(check-sat)
(check-sat)
(pop)
(check-sat)
(assert true)
(push)
(push)
(check-sat)
(pop)
(push)
(check-sat)
(check-sat)
(push)
(check-sat)
(pop)
(push)
(check-sat)
(pop)
(pop)
(check-sat)
(check-sat)
(check-sat)
(pop)
(check-sat)
(push)
(check-sat)
(check-sat)
(check-sat)
(pop)
(assert (> i18 100))
(pop)
(assert v10)
(check-sat)
(push)
(check-sat)
(pop)
(check-sat)
